s td 17 84 100
b 1 1 2 3 4 5 6 7 8 9 10 13 14 15 16 17 18 19 21 22 23 25 26 27 28 30 31 33 34 35 37 38 39 40 42 43 44 45 46 47 49 50 51 52 53 54 55 56 57 58 59 60 61 62 63 64 69 70 72 73 74 75 76 77 78 79 80 82 83 84 86 87 88 89 91 92 93 94 95 96 97 98 99 100
b 2 1 2 3 4 6 7 8 9 10 13 14 15 16 17 18 19 21 22 23 25 26 27 28 30 31 33 34 35 37 38 39 40 41 42 43 44 45 46 47 48 49 50 51 52 53 54 55 56 57 58 59 60 61 62 63 64 69 70 72 73 74 75 76 77 78 79 80 82 83 84 86 87 88 89 91 92 93 94 95 96 97 98 99 100
b 3 1 2 3 4 6 7 8 9 10 13 14 15 16 17 19 20 21 22 23 25 26 27 28 30 31 33 34 35 37 38 39 40 41 42 43 44 45 46 47 48 49 50 51 52 53 54 55 56 57 58 59 60 61 62 63 64 69 70 72 73 74 75 76 77 79 80 82 83 84 86 87 88 89 91 92 93 94 95 96 97 98 99 100
b 4 1 2 3 4 6 7 8 9 10 13 14 15 16 17 19 20 21 22 23 25 26 27 28 30 31 33 34 35 37 38 39 41 42 43 44 45 46 47 48 49 50 51 52 53 54 55 56 57 58 59 60 61 62 63 64 67 69 70 72 73 74 75 76 77 79 80 82 83 84 86 87 88 89 91 92 93 94 95 96 97 98 99 100
b 5 1 2 3 4 6 7 8 9 10 13 14 15 16 17 19 20 21 22 23 24 25 26 27 28 30 31 33 34 35 37 38 39 41 42 43 44 45 46 47 48 49 50 51 52 53 54 55 56 57 58 59 60 61 63 64 67 69 70 72 73 75 76 77 79 80 82 83 84 86 87 88 89 91 92 93 94 95 96 97 98 99 100
b 6 1 3 4 6 7 8 9 10 13 14 15 16 17 20 21 22 23 24 25 26 27 28 30 31 33 34 35 36 37 38 39 41 42 43 44 45 46 47 48 49 50 51 52 53 54 55 56 57 58 59 60 61 63 64 67 69 70 72 73 75 76 77 79 80 82 83 84 86 87 88 89 91 92 93 94 95 96 97 98 99 100
b 7 1 3 4 6 7 8 9 10 13 14 15 16 17 20 21 22 23 24 25 26 27 28 30 31 34 35 36 37 38 39 41 42 43 44 45 46 47 48 49 50 51 52 53 54 55 56 57 58 59 60 61 63 64 65 67 69 70 72 73 75 76 77 79 80 82 83 84 86 87 88 89 91 92 93 94 95 96 97 98 99
b 8 1 3 6 7 8 9 10 13 14 15 16 17 20 21 22 23 24 25 26 27 28 30 31 34 35 36 38 39 42 43 44 45 46 47 48 49 50 51 52 53 55 56 57 59 60 61 63 64 65 67 68 69 70 72 73 75 76 77 79 80 82 83 84 86 87 88 89 91 92 93 94 95 96 97 98 99
b 9 1 3 6 8 9 10 13 14 15 16 17 20 21 22 23 24 25 26 28 30 31 34 35 36 38 42 43 44 45 46 48 49 50 51 52 53 55 56 57 59 61 63 64 65 67 68 69 73 75 77 79 80 82 83 84 85 86 87 88 89 91 93 94 95 96 97 98 99
b 10 1 6 9 10 11 14 15 17 20 21 22 23 25 30 31 34 38 42 44 46 48 49 52 53 55 56 57 61 63 64 65 69 73 79 80 83 85 86 88 89 91 93 96 97
b 11 1 2 3 4 6 7 8 9 10 12 13 14 15 16 17 18 19 21 22 25 26 27 28 31 33 34 35 37 38 39 40 41 42 43 44 45 46 47 48 49 50 51 52 53 54 55 56 57 58 60 61 62 63 64 69 70 72 73 74 75 76 77 78 80 82 83 84 86 87 89 91 92 93 94 95 96 97 99 100
b 12 1 3 4 7 10 12 14 16 18 19 25 27 28 33 34 35 39 40 44 46 48 49 50 52 53 56 57 60 61 62 64 66 69 70 72 73 74 75 76 77 78 80 84 87 91 92 95
b 13 1 4 7 8 9 10 12 13 14 16 17 18 21 22 26 31 37 38 39 40 42 43 46 47 51 53 56 57 61 62 63 70 71 74 75 77 82 83 84 86 87 89 91 92 93 94 96 97 100
b 14 1 3 4 5 6 7 8 9 10 13 14 15 16 17 18 19 21 22 23 25 26 27 28 29 30 31 33 34 35 37 38 39 40 42 43 44 45 46 47 49 50 51 52 53 54 55 56 57 58 59 60 61 62 63 64 69 70 72 73 74 75 76 77 78 79 80 82 83 84 86 87 88 89 91 92 93 94 96 97 98 100
b 15 1 3 4 8 9 10 13 14 15 17 18 19 22 23 25 26 28 29 30 31 32 34 35 37 38 40 42 43 45 47 49 50 51 52 53 54 55 56 57 58 59 60 61 62 63 69 70 72 73 74 76 77 78 79 80 83 84 86 87 88 89 91 92 93 94 96 98 100
b 16 1 3 4 10 13 14 15 17 18 22 25 26 28 30 32 37 38 40 42 43 45 49 50 51 52 53 56 57 60 61 63 69 70 72 74 79 83 84 86 87 88 89 90 91 92 93
b 17 4 5 6 7 8 10 14 15 17 23 26 27 28 29 30 31 33 34 35 38 39 44 45 46 50 51 52 53 54 61 64 72 75 78 79 80 81 82 83 84 86 87 88 89 93 94 96 98 100
1 2
1 14
2 3
2 11
3 4
4 5
5 6
6 7
7 8
8 9
9 10
11 12
11 13
14 15
14 17
15 16
